proyfinal/src/viki/013/experimentInOfficeAgust.take6.output/e8477bac-40c2-4a21-ba1c-6bdf4c11e02a.als.out
Reading from standard input... Use '--help' for help.
============================[ Problem Statistics ]=============================
|                                                                             |
|  Number of variables:         87638                                         |
|  Number of clauses:          161767                                         |
|  Parse time:                   0.04 s                                       |
|                                                                             |
============================[ Search Statistics ]==============================
| Conflicts |          ORIGINAL         |          LEARNT          | Progress |
|           |    Vars  Clauses Literals |    Limit  Clauses Lit/Cl |          |
===============================================================================
|       100 |   62087   104310   260181 |    38247      100      8 | 29.155 % |
|       250 |   62087   104310   260181 |    42071      250     46 | 29.155 % |
|       475 |   61957   104102   259681 |    46278      470     39 | 29.303 % |
|       812 |   61957   103790   258931 |    50906      802     62 | 29.304 % |
|      1318 |   61941   103724   258778 |    55997     1307     65 | 29.322 % |
|      2077 |   61877   103468   258170 |    61597     2061     81 | 29.395 % |
|      3216 |   61876   103424   258080 |    67756     3197     83 | 29.396 % |
|      4924 |   61748   102986   257029 |    74532     4894     93 | 29.542 % |
|      7486 |   61730   102838   256687 |    81985     7454    113 | 29.563 % |
|     11330 |   52905    76332   191810 |    90184    10534    105 | 39.632 % |
===============================================================================
restarts              : 63
conflicts             : 16890          (7717 /sec)
decisions             : 58815          (0.00 % random) (26874 /sec)
propagations          : 20146580       (9205493 /sec)
conflict literals     : 1527807        (42.15 % deleted)
Memory used           : 35.28 MB
CPU time              : 2.18854 s

UNSATISFIABLE
